[2026-03-24T00:33:48.866Z] Pipeline "set_set_set_s006_g002" → 2026_03_24_00_33_48_set_set_set_s006_g002_max.sol
Set parameter WLSAccessID
Set parameter WLSSecret
Set parameter LicenseID to value 2792458
Set parameter LogFile to value "gurobi.log"
Using license file /root/gurobi.lic
Academic license 2792458 - for non-commercial use only - registered to an___@studenti.unipg.it

Gurobi Optimizer version 13.0.1 build v13.0.1rc0 (linux64 - "Ubuntu 24.04.4 LTS")
Copyright (c) 2026, Gurobi Optimization, LLC

Warning: Duplicate section found (read 'binary') - Is a variable name equal to an LP file format keyword?
Warning: Duplicate section found (read 'binary') - Is a variable name equal to an LP file format keyword?
Warning: Duplicate section found (read 'binary') - Is a variable name equal to an LP file format keyword?
Warning: Duplicate section found (read 'binary') - Is a variable name equal to an LP file format keyword?
Warning: Duplicate section found (read 'binary') - Is a variable name equal to an LP file format keyword?
Warning: Duplicate section found (read 'binary') - Is a variable name equal to an LP file format keyword?
Warning: Duplicate section found (read 'binary') - Is a variable name equal to an LP file format keyword?
Warning: Duplicate section found (read 'binary') - Is a variable name equal to an LP file format keyword?
Warning: Duplicate section found (read 'binary') - Is a variable name equal to an LP file format keyword?
Warning: Duplicate section found (read 'binary') - Is a variable name equal to an LP file format keyword?
Warning: Further warnings of this type will be omitted.
Read LP format model from file /root/bgw/data/uploads/2026_03_24_00_33_48_set_set_set_s006_g002_max.lp
Reading time = 0.00 seconds
: 684 rows, 130 columns, 1847 nonzeros

Using Gurobi shared library /opt/gurobi1301/linux64/lib/libgurobi.so.13.0.1

CPU model: AMD EPYC-Genoa Processor, instruction set [SSE2|AVX|AVX2|AVX512]
Thread count: 16 physical cores, 16 logical processors, using up to 16 threads

Academic license 2792458 - for non-commercial use only - registered to an___@studenti.unipg.it
Optimize a model with 684 rows, 130 columns and 1847 nonzeros (Max)
Model fingerprint: 0xaaae0905
Model has 19 linear objective coefficients
Variable types: 30 continuous, 100 integer (100 binary)
Coefficient statistics:
  Matrix range     [1e+00, 1e+01]
  Objective range  [1e+00, 1e+00]
  Bounds range     [1e+00, 1e+00]
  RHS range        [1e+00, 1e+01]

Found heuristic solution: objective 19.0000000
Presolve removed 304 rows and 45 columns
Presolve time: 0.00s
Presolved: 380 rows, 85 columns, 1220 nonzeros
Variable types: 0 continuous, 85 integer (75 binary)
Found heuristic solution: objective 31.0000000

Root relaxation: objective 8.800000e+01, 101 iterations, 0.00 seconds (0.00 work units)

    Nodes    |    Current Node    |     Objective Bounds      |     Work
 Expl Unexpl |  Obj  Depth IntInf | Incumbent    BestBd   Gap | It/Node Time

     0     0   88.00000    0   52   31.00000   88.00000   184%     -    0s
H    0     0                      37.0000000   88.00000   138%     -    0s
H    0     0                      42.0000000   88.00000   110%     -    0s
H    0     0                      43.0000000   88.00000   105%     -    0s
H    0     0                      46.0000000   88.00000  91.3%     -    0s
     0     0   88.00000    0   57   46.00000   88.00000  91.3%     -    0s
     0     0   88.00000    0   57   46.00000   88.00000  91.3%     -    0s
     0     0   88.00000    0   56   46.00000   88.00000  91.3%     -    0s
     0     0   88.00000    0   46   46.00000   88.00000  91.3%     -    0s
H    0     0                      47.0000000   88.00000  87.2%     -    0s
H    0     0                      49.0000000   88.00000  79.6%     -    0s
     0     0   88.00000    0   45   49.00000   88.00000  79.6%     -    0s
     0     0   88.00000    0   45   49.00000   88.00000  79.6%     -    0s
     0     0   88.00000    0   52   49.00000   88.00000  79.6%     -    0s
     0     0   88.00000    0   48   49.00000   88.00000  79.6%     -    0s
     0     0   88.00000    0   48   49.00000   88.00000  79.6%     -    0s
     0     0   88.00000    0   47   49.00000   88.00000  79.6%     -    0s
     0     0   88.00000    0   46   49.00000   88.00000  79.6%     -    0s
     0     0   88.00000    0   46   49.00000   88.00000  79.6%     -    0s
     0     0   88.00000    0   46   49.00000   88.00000  79.6%     -    0s
     0     0   88.00000    0   46   49.00000   88.00000  79.6%     -    0s
     0     2   88.00000    0   46   49.00000   88.00000  79.6%     -    0s

Cutting planes:
  Cover: 1
  Inf proof: 5

Explored 12005 nodes (226141 simplex iterations) in 0.95 seconds (0.98 work units)
Thread count was 16 (of 16 available processors)

Solution count 8: 49 47 46 ... 19

Optimal solution found (tolerance 1.00e-04)
Best objective 4.900000000000e+01, best bound 4.900000000000e+01, gap 0.0000%

Wrote result file '/root/bgw/data/results/2026_03_24_00_33_48_set_set_set_s006_g002_max.sol'

